2568.57
0 1 4 2 3 6 5 10 14 17 0
0 27 30 28 32 9 8 7 16 11 23 21 18 19 13 12 15 0
0 72 22 20 37 35 38 25 31 29 33 36 42 40 44 50 43 46 57 0
0 67 61 26 24 58 55 51 47 0
0 60 59 39 41 34 0
0 49 52 45 48 62 0
0 56 53 54 71 0
0 64 68 65 73 69 70 0
0 63 66 75 74 0
